p cnf 153 607
77 82 0
31 86 0
69 137 0
75 76 0
55 79 0
39 54 96 0
64 80 85 100 0
34 74 87 88 128 0
70 78 94 133 0
98 108 0
52 59 66 71 151 0
23 43 47 61 115 0
35 36 38 83 0
58 89 91 0
32 124 0
28 68 72 130 0
27 49 0
26 41 45 93 0
24 62 0
40 97 99 0
92 101 102 0
33 104 0
106 107 0
109 147 0
110 111 113 114 0
46 116 0
65 119 0
90 121 122 123 0
125 126 127 0
30 131 138 139 0
53 140 141 0
42 48 142 0
118 143 145 0
37 81 95 0
73 134 135 0
-55 -69 0
-60 -69 0
-63 -69 0
-69 -146 0
-55 -60 0
-55 -63 0
-55 -146 0
-60 -63 0
-60 -146 0
-63 -146 0
-39 -87 0
-39 -78 0
-39 -98 0
-39 -148 0
-78 -87 0
-87 -98 0
-87 -148 0
-78 -98 0
-78 -148 0
-98 -148 0
-101 -117 0
-33 -117 0
-117 -132 0
-106 -117 0
-33 -101 0
-101 -132 0
-101 -106 0
-33 -132 0
-33 -106 0
-106 -132 0
-30 -121 0
-121 -149 0
-121 -140 0
-67 -121 0
-30 -149 0
-30 -140 0
-30 -67 0
-140 -149 0
-67 -149 0
-67 -140 0
-37 -42 0
-42 -84 0
-42 -129 0
-42 -73 0
-37 -84 0
-37 -129 0
-37 -73 0
-84 -129 0
-73 -84 0
-73 -129 0
-39 -69 0
-69 -117 0
-69 -121 0
-42 -69 0
-39 -117 0
-39 -121 0
-39 -42 0
-117 -121 0
-42 -117 0
-42 -121 0
-55 -87 0
-55 -101 0
-30 -55 0
-37 -55 0
-87 -101 0
-30 -87 0
-37 -87 0
-30 -101 0
-37 -101 0
-30 -37 0
-60 -78 0
-33 -60 0
-60 -149 0
-60 -84 0
-33 -78 0
-78 -149 0
-78 -84 0
-33 -149 0
-33 -84 0
-84 -149 0
-63 -98 0
-63 -132 0
-63 -140 0
-63 -129 0
-98 -132 0
-98 -140 0
-98 -129 0
-132 -140 0
-129 -132 0
-129 -140 0
-146 -148 0
-106 -146 0
-67 -146 0
-73 -146 0
-106 -148 0
-67 -148 0
-73 -148 0
-67 -106 0
-73 -106 0
-67 -73 0
-80 -88 0
-70 -80 0
-70 -88 0
-59 -61 0
-38 -59 0
-38 -61 0
-51 -110 0
-46 -110 0
-46 -51 0
-59 -80 0
-80 -110 0
-59 -110 0
-61 -88 0
-51 -88 0
-51 -61 0
-38 -70 0
-46 -70 0
-38 -46 0
-64 -74 0
-40 -102 0
-40 -64 0
-74 -102 0
-25 -76 0
-76 -144 0
-25 -144 0
-99 -136 0
-99 -107 0
-107 -136 0
-111 -119 0
-103 -111 0
-103 -119 0
-76 -99 0
-76 -111 0
-99 -111 0
-25 -136 0
-25 -119 0
-119 -136 0
-107 -144 0
-103 -144 0
-103 -107 0
-96 -100 0
-34 -96 0
-96 -133 0
-34 -100 0
-100 -133 0
-34 -133 0
-71 -150 0
-23 -150 0
-83 -150 0
-23 -71 0
-71 -83 0
-23 -83 0
-109 -113 0
-109 -152 0
-109 -116 0
-113 -152 0
-113 -116 0
-116 -152 0
-90 -125 0
-90 -131 0
-57 -90 0
-125 -131 0
-57 -125 0
-57 -131 0
-96 -150 0
-96 -109 0
-90 -96 0
-109 -150 0
-90 -150 0
-90 -109 0
-71 -100 0
-100 -113 0
-100 -125 0
-71 -113 0
-71 -125 0
-113 -125 0
-23 -34 0
-34 -152 0
-34 -131 0
-23 -152 0
-23 -131 0
-131 -152 0
-83 -133 0
-116 -133 0
-57 -133 0
-83 -116 0
-57 -83 0
-57 -116 0
-75 -137 0
-79 -137 0
-44 -137 0
-137 -153 0
-75 -79 0
-44 -75 0
-75 -153 0
-44 -79 0
-79 -153 0
-44 -153 0
-50 -52 0
-47 -50 0
-50 -91 0
-32 -50 0
-47 -52 0
-52 -91 0
-32 -52 0
-47 -91 0
-32 -47 0
-32 -91 0
-68 -105 0
-21 -105 0
-93 -105 0
-62 -105 0
-21 -68 0
-68 -93 0
-62 -68 0
-21 -93 0
-21 -62 0
-62 -93 0
-114 -147 0
-20 -147 0
-65 -147 0
-19 -147 0
-20 -114 0
-65 -114 0
-19 -114 0
-20 -65 0
-19 -20 0
-19 -65 0
-118 -142 0
-95 -142 0
-18 -142 0
-134 -142 0
-95 -118 0
-18 -118 0
-118 -134 0
-18 -95 0
-95 -134 0
-18 -134 0
-50 -137 0
-105 -137 0
-137 -147 0
-137 -142 0
-50 -105 0
-50 -147 0
-50 -142 0
-105 -147 0
-105 -142 0
-142 -147 0
-52 -75 0
-68 -75 0
-75 -114 0
-75 -118 0
-52 -68 0
-52 -114 0
-52 -118 0
-68 -114 0
-68 -118 0
-114 -118 0
-47 -79 0
-21 -79 0
-20 -79 0
-79 -95 0
-21 -47 0
-20 -47 0
-47 -95 0
-20 -21 0
-21 -95 0
-20 -95 0
-44 -91 0
-44 -93 0
-44 -65 0
-18 -44 0
-91 -93 0
-65 -91 0
-18 -91 0
-65 -93 0
-18 -93 0
-18 -65 0
-32 -153 0
-62 -153 0
-19 -153 0
-134 -153 0
-32 -62 0
-19 -32 0
-32 -134 0
-19 -62 0
-62 -134 0
-19 -134 0
-16 -17 0
-17 -77 0
-15 -17 0
-17 -31 0
-16 -77 0
-15 -16 0
-16 -31 0
-15 -77 0
-31 -77 0
-15 -31 0
-14 -66 0
-14 -43 0
-14 -36 0
-14 -58 0
-43 -66 0
-36 -66 0
-58 -66 0
-36 -43 0
-43 -58 0
-36 -58 0
-13 -72 0
-12 -13 0
-13 -49 0
-13 -45 0
-12 -72 0
-49 -72 0
-45 -72 0
-12 -49 0
-12 -45 0
-45 -49 0
-11 -97 0
-11 -92 0
-11 -104 0
-10 -11 0
-92 -97 0
-97 -104 0
-10 -97 0
-92 -104 0
-10 -92 0
-10 -104 0
-122 -126 0
-122 -138 0
-9 -122 0
-122 -141 0
-126 -138 0
-9 -126 0
-126 -141 0
-9 -138 0
-138 -141 0
-9 -141 0
-14 -17 0
-13 -17 0
-11 -17 0
-17 -122 0
-13 -14 0
-11 -14 0
-14 -122 0
-11 -13 0
-13 -122 0
-11 -122 0
-16 -66 0
-16 -72 0
-16 -97 0
-16 -126 0
-66 -72 0
-66 -97 0
-66 -126 0
-72 -97 0
-72 -126 0
-97 -126 0
-43 -77 0
-12 -77 0
-77 -92 0
-77 -138 0
-12 -43 0
-43 -92 0
-43 -138 0
-12 -92 0
-12 -138 0
-92 -138 0
-15 -36 0
-15 -49 0
-15 -104 0
-9 -15 0
-36 -49 0
-36 -104 0
-9 -36 0
-49 -104 0
-9 -49 0
-9 -104 0
-31 -58 0
-31 -45 0
-10 -31 0
-31 -141 0
-45 -58 0
-10 -58 0
-58 -141 0
-10 -45 0
-45 -141 0
-10 -141 0
-28 -41 0
-8 -143 0
-28 -143 0
-8 -41 0
-7 -22 0
-7 -82 0
-7 -120 0
-7 -86 0
-7 -29 0
-22 -82 0
-22 -120 0
-22 -86 0
-22 -29 0
-82 -120 0
-82 -86 0
-29 -82 0
-86 -120 0
-29 -120 0
-29 -86 0
-54 -85 0
-54 -128 0
-54 -94 0
-54 -108 0
-54 -112 0
-85 -128 0
-85 -94 0
-85 -108 0
-85 -112 0
-94 -128 0
-108 -128 0
-112 -128 0
-94 -108 0
-94 -112 0
-108 -112 0
-6 -151 0
-6 -115 0
-6 -35 0
-6 -89 0
-6 -124 0
-115 -151 0
-35 -151 0
-89 -151 0
-124 -151 0
-35 -115 0
-89 -115 0
-115 -124 0
-35 -89 0
-35 -124 0
-89 -124 0
-5 -130 0
-5 -56 0
-5 -27 0
-5 -26 0
-5 -24 0
-56 -130 0
-27 -130 0
-26 -130 0
-24 -130 0
-27 -56 0
-26 -56 0
-24 -56 0
-26 -27 0
-24 -27 0
-24 -26 0
-123 -127 0
-123 -139 0
-4 -123 0
-53 -123 0
-3 -123 0
-127 -139 0
-4 -127 0
-53 -127 0
-3 -127 0
-4 -139 0
-53 -139 0
-3 -139 0
-4 -53 0
-3 -4 0
-3 -53 0
-48 -145 0
-48 -81 0
-2 -48 0
-1 -48 0
-48 -135 0
-81 -145 0
-2 -145 0
-1 -145 0
-135 -145 0
-2 -81 0
-1 -81 0
-81 -135 0
-1 -2 0
-2 -135 0
-1 -135 0
-7 -54 0
-6 -7 0
-5 -7 0
-7 -123 0
-7 -48 0
-6 -54 0
-5 -54 0
-54 -123 0
-48 -54 0
-5 -6 0
-6 -123 0
-6 -48 0
-5 -123 0
-5 -48 0
-48 -123 0
-22 -85 0
-22 -151 0
-22 -130 0
-22 -127 0
-22 -145 0
-85 -151 0
-85 -130 0
-85 -127 0
-85 -145 0
-130 -151 0
-127 -151 0
-145 -151 0
-127 -130 0
-130 -145 0
-127 -145 0
-82 -128 0
-82 -115 0
-56 -82 0
-82 -139 0
-81 -82 0
-115 -128 0
-56 -128 0
-128 -139 0
-81 -128 0
-56 -115 0
-115 -139 0
-81 -115 0
-56 -139 0
-56 -81 0
-81 -139 0
-94 -120 0
-35 -120 0
-27 -120 0
-4 -120 0
-2 -120 0
-35 -94 0
-27 -94 0
-4 -94 0
-2 -94 0
-27 -35 0
-4 -35 0
-2 -35 0
-4 -27 0
-2 -27 0
-2 -4 0
-86 -108 0
-86 -89 0
-26 -86 0
-53 -86 0
-1 -86 0
-89 -108 0
-26 -108 0
-53 -108 0
-1 -108 0
-26 -89 0
-53 -89 0
-1 -89 0
-26 -53 0
-1 -26 0
-1 -53 0
-29 -112 0
-29 -124 0
-24 -29 0
-3 -29 0
-29 -135 0
-112 -124 0
-24 -112 0
-3 -112 0
-112 -135 0
-24 -124 0
-3 -124 0
-124 -135 0
-3 -24 0
-24 -135 0
-3 -135 0
